30	100	100	100
6	13	100
97	97	100
33	88	100
20	1	100
18	89	100
27	91	100
75	14	100
63	19	100
98	9	100
47	80	100
25	84	100
13	80	100
65	28	100
28	60	100
45	44	100
31	53	100
19	4	100
86	60	100
93	39	100
41	4	100
32	51	100
73	50	100
24	67	100
99	24	100
79	93	100
38	98	100
89	65	100
41	79	100
59	94	100
66	73	100
